proyfinal/src/viki/013/experimentInOfficeAgust.take6.output/da7c99e4-2ef5-4188-87fe-96d7b90caa5d.als.dat
{'cnf.clauses': '118081',
 'cnf.totvars': '69608',
 'conflict literals': '128',
 'conflicts': '47',
 'decisions': '16231',
 'memused.mb': '14.67',
 'outcome': 'UNSAT',
 'propagations': '64221',
 'restarts': '1',
 'solver.msecs': 28,
 'task.msecs': 161}
