proyfinal/src/viki/013/experimentInOfficeAgust.take6.output/da7c99e4-2ef5-4188-87fe-96d7b90caa5d.als.out
Reading from standard input... Use '--help' for help.
============================[ Problem Statistics ]=============================
|                                                                             |
|  Number of variables:         69608                                         |
|  Number of clauses:          118081                                         |
|  Parse time:                   0.02 s                                       |
|                                                                             |
============================[ Search Statistics ]==============================
| Conflicts |          ORIGINAL         |          LEARNT          | Progress |
|           |    Vars  Clauses Literals |    Limit  Clauses Lit/Cl |          |
===============================================================================
===============================================================================
restarts              : 1
conflicts             : 47             (1670 /sec)
decisions             : 16231          (0.00 % random) (576713 /sec)
propagations          : 64221          (2281872 /sec)
conflict literals     : 128            (3.76 % deleted)
Memory used           : 14.67 MB
CPU time              : 0.028144 s

UNSATISFIABLE
